nat_inputs/AUFLIA/20170829-Rodin/smt8469316685144620162.smt2
(set-info :smt-lib-version 2.6)
(set-logic ALL)
(declare-sort Nat$ 0)
(declare-fun to_int$ (Nat$) Int)
(set-info :source |Generator: Rodin SMT Plug-in|)
(set-info :license "https://creativecommons.org/licenses/by-nc/4.0/")
(set-info :category "industrial")
(set-info :status unsat)
(declare-sort A 0)
(declare-sort PA 0)
(declare-sort PAA 0)
(declare-sort PZ 0)
(declare-sort PZA 0)
(declare-fun MS (A A PAA) Bool)
(declare-fun MS0 (A PA) Bool)
(declare-fun MS1 (Int A PZA) Bool)
(declare-fun MS2 (Int PZ) Bool)
(declare-fun cnc (PZA PZA PZA) Bool)
(declare-fun dist (A A Int) Bool)
(declare-fun length (PZA Int) Bool)
(declare-fun path (A A PZA) Bool)
(declare-fun reverse (PZA PZA) Bool)
(declare-fun seq (PZA) Bool)
(declare-fun shpath (A A PZA) Bool)
(declare-fun a () PA)
(declare-fun c () PAA)
(declare-fun candidate () PA)
(declare-fun r () PAA)
(declare-fun t () A)
(declare-fun x () A)
(declare-fun y1 () A)
(declare-fun z () A)
(assert (forall ((x399 A) (x400 A)) (exists ((X PAA)) (and (MS x399 x400 X) (forall ((y22 A) (y23 A)) (=> (MS y22 y23 X) (and (= y22 x399) (= y23 x400))))))))
(assert (forall ((x401 A)) (exists ((X0 PA)) (and (MS0 x401 X0) (forall ((y24 A)) (=> (MS0 y24 X0) (= y24 x401)))))))
(assert (forall ((x402 Int)) (exists ((X1 PZ)) (and (MS2 x402 X1) (forall ((y25 Int)) (=> (MS2 y25 X1) (= y25 x402)))))))
(assert (forall ((x403 Int) (x404 A)) (exists ((X2 PZA)) (and (MS1 x403 x404 X2) (forall ((y26 Int) (y27 A)) (=> (MS1 y26 y27 X2) (and (= y26 x403) (= y27 x404))))))))
(assert (! (forall ((x0 A) (x1 A)) (=> (MS x0 x1 r) (and (MS0 x0 a) (MS0 x1 a)))) :named hyp1))
(assert (! (not (forall ((x2 A) (x3 A)) (not (MS x2 x3 r)))) :named hyp2))
(assert (! (forall ((x4 A) (x5 A)) (=> (MS x4 x5 c) (and (MS0 x4 a) (MS0 x5 a)))) :named hyp3))
(assert (! (forall ((x6 A) (x7 A)) (=> (MS x6 x7 r) (MS x6 x7 c))) :named hyp4))
(assert (! (forall ((x8 A) (x9 A)) (=> (exists ((x10 A)) (and (MS x8 x10 c) (MS x10 x9 r))) (MS x8 x9 c))) :named hyp5))
(assert (! (forall ((s PAA)) (=> (and (forall ((x11 A) (x12 A)) (=> (MS x11 x12 s) (and (MS0 x11 a) (MS0 x12 a)))) (forall ((x13 A) (x14 A)) (=> (MS x13 x14 r) (MS x13 x14 s))) (forall ((x15 A) (x16 A)) (=> (exists ((x17 A)) (and (MS x15 x17 s) (MS x17 x16 r))) (MS x15 x16 s)))) (forall ((x18 A) (x19 A)) (=> (MS x18 x19 c) (MS x18 x19 s))))) :named hyp6))
(assert (! (forall ((x20 A)) (= (exists ((x21 A)) (MS x20 x21 r)) (MS0 x20 a))) :named hyp7))
(assert (! (forall ((x22 A)) (= (exists ((x23 A)) (MS x22 x23 c)) (MS0 x22 a))) :named hyp8))
(assert (! (forall ((x24 A)) (=> (exists ((x25 A)) (MS x24 x25 r)) (exists ((x26 A)) (MS x24 x26 c)))) :named hyp9))
(assert (! (forall ((x27 A) (x28 A)) (= (MS x27 x28 c) (or (MS x27 x28 r) (exists ((x29 A)) (and (MS x27 x29 c) (MS x29 x28 r)))))) :named hyp10))
(assert (! (forall ((x30 A) (y A)) (=> (and (MS0 x30 a) (MS0 y a)) (forall ((s0 PZA) (n Nat$)) (=> (and (<= 0 (to_int$ n)) (< 1 (to_int$ n)) (forall ((x31 Int) (x32 A)) (=> (MS1 x31 x32 s0) (and (<= 1 x31) (<= x31 (to_int$ n)) (MS0 x32 a)))) (forall ((x33 Int) (x34 A) (x35 A)) (=> (and (MS1 x33 x34 s0) (MS1 x33 x35 s0)) (= x34 x35))) (forall ((x36 Int)) (=> (and (<= 1 x36) (<= x36 (to_int$ n))) (exists ((x37 A)) (MS1 x36 x37 s0))))) (and (exists ((x38 A) (x39 Int)) (and (= x39 1) (MS1 x39 x38 s0))) (forall ((x40 Int) (x41 A) (x42 A)) (=> (and (MS1 x40 x41 s0) (MS1 x40 x42 s0)) (= x41 x42))) (=> (exists ((x43 Int)) (and (= x43 1) (MS1 x43 x30 s0))) (and (exists ((x44 A)) (MS1 (to_int$ n) x44 s0)) (=> (MS1 (to_int$ n) y s0) (forall ((i Int)) (=> (and (<= 1 i) (<= i (- (to_int$ n) 1))) (and (exists ((x45 A)) (MS1 i x45 s0)) (exists ((x46 A) (x47 Int)) (and (= x47 (+ i 1)) (MS1 x47 x46 s0)))))))))))))) :named hyp11))
(assert (! (forall ((s1 PZ) (n0 Int)) (=> (and (< 1 n0) (forall ((x48 Int)) (=> (MS2 x48 s1) (and (<= 2 x48) (<= x48 n0)))) (exists ((x49 Int)) (and (= x49 2) (MS2 x49 s1))) (forall ((i0 Int)) (=> (and (<= 2 i0) (<= i0 (- n0 1)) (MS2 i0 s1)) (exists ((x50 Int)) (and (= x50 (+ i0 1)) (MS2 x50 s1)))))) (forall ((x51 Int)) (=> (and (<= 2 x51) (<= x51 n0)) (MS2 x51 s1))))) :named hyp12))
(assert (! (forall ((x52 A) (x53 A)) (=> (exists ((x54 PZA)) (path x52 x53 x54)) (MS x52 x53 c))) :named hyp13))
(assert (! (forall ((x55 A) (x56 A)) (=> (MS x55 x56 c) (exists ((x57 PZA)) (path x55 x56 x57)))) :named hyp14))
(assert (! (forall ((x58 A) (x59 A)) (=> (and (MS0 x58 a) (MS0 x59 a)) (exists ((x60 PZA)) (path x58 x59 x60)))) :named hyp15))
(assert (! (forall ((x61 PZA)) (= (seq x61) (exists ((s2 PZA)) (and (exists ((n1 Nat$)) (and (<= 0 (to_int$ n1)) (forall ((x62 Int) (x63 A)) (=> (MS1 x62 x63 s2) (and (<= 1 x62) (<= x62 (to_int$ n1))))) (forall ((x64 Int) (x65 A) (x66 A)) (=> (and (MS1 x64 x65 s2) (MS1 x64 x66 s2)) (= x65 x66))) (forall ((x67 Int)) (=> (and (<= 1 x67) (<= x67 (to_int$ n1))) (exists ((x68 A)) (MS1 x67 x68 s2)))))) (forall ((x69 Int) (x70 A)) (= (MS1 x69 x70 x61) (MS1 x69 x70 s2))))))) :named hyp16))
(assert (! (forall ((n2 Nat$) (s3 PZA)) (=> (and (<= 0 (to_int$ n2)) (forall ((x71 Int) (x72 A)) (=> (MS1 x71 x72 s3) (and (<= 1 x71) (<= x71 (to_int$ n2))))) (forall ((x73 Int) (x74 A) (x75 A)) (=> (and (MS1 x73 x74 s3) (MS1 x73 x75 s3)) (= x74 x75))) (forall ((x76 Int)) (=> (and (<= 1 x76) (<= x76 (to_int$ n2))) (exists ((x77 A)) (MS1 x76 x77 s3))))) (seq s3))) :named hyp17))
(assert (! (and (forall ((x78 PZA) (x79 Nat$)) (=> (length x78 (to_int$ x79)) (and (seq x78) (<= 0 (to_int$ x79))))) (forall ((x80 PZA) (x81 Int) (x82 Int)) (=> (and (length x80 x81) (length x80 x82)) (= x81 x82))) (forall ((x83 PZA)) (=> (seq x83) (exists ((x84 Int)) (length x83 x84))))) :named hyp18))
(assert (! (forall ((n3 Nat$) (s4 PZA)) (=> (and (<= 0 (to_int$ n3)) (forall ((x85 Int) (x86 A)) (=> (MS1 x85 x86 s4) (and (<= 1 x85) (<= x85 (to_int$ n3))))) (forall ((x87 Int) (x88 A) (x89 A)) (=> (and (MS1 x87 x88 s4) (MS1 x87 x89 s4)) (= x88 x89))) (forall ((x90 Int)) (=> (and (<= 1 x90) (<= x90 (to_int$ n3))) (exists ((x91 A)) (MS1 x90 x91 s4))))) (length s4 (to_int$ n3)))) :named hyp19))
(assert (! (forall ((s5 PZA)) (=> (seq s5) (and (forall ((x92 Int) (x93 A)) (=> (MS1 x92 x93 s5) (and (<= 1 x92) (forall ((x94 Int)) (=> (length s5 x94) (<= x92 x94)))))) (forall ((x95 Int) (x96 A) (x97 A)) (=> (and (MS1 x95 x96 s5) (MS1 x95 x97 s5)) (= x96 x97))) (forall ((x98 Int)) (=> (and (<= 1 x98) (forall ((x99 Int)) (=> (length s5 x99) (<= x98 x99)))) (exists ((x100 A)) (MS1 x98 x100 s5))))))) :named hyp20))
(assert (! (forall ((x101 PZA) (x102 PZA) (x103 PZA)) (= (cnc x101 x102 x103) (exists ((s10 PZA) (s20 PZA)) (and (seq s10) (seq s20) (forall ((x104 Int) (x105 A)) (= (MS1 x104 x105 x101) (MS1 x104 x105 s10))) (forall ((x106 Int) (x107 A)) (= (MS1 x106 x107 x102) (MS1 x106 x107 s20))) (forall ((x108 Int) (x109 A)) (= (MS1 x108 x109 x103) (or (exists ((i1 Int)) (and (<= 1 i1) (forall ((x110 Int)) (=> (length s10 x110) (<= i1 x110))) (= x108 i1) (MS1 i1 x109 s10))) (exists ((i2 Int)) (and (forall ((x111 Int)) (=> (length s10 x111) (<= (+ x111 1) i2))) (forall ((x112 Int) (x113 Int)) (=> (and (length s10 x113) (length s20 x112)) (<= i2 (+ x113 x112)))) (= x108 i2) (exists ((x114 Int)) (and (forall ((x115 Int)) (=> (length s10 x115) (= x114 (- i2 x115)))) (MS1 x114 x109 s20)))))))))))) :named hyp21))
(assert (! (and (forall ((x116 PZA) (x117 PZA) (x118 PZA)) (=> (cnc x116 x117 x118) (and (seq x116) (seq x117) (seq x118)))) (forall ((x119 PZA) (x120 PZA) (x121 PZA) (x122 PZA)) (=> (and (cnc x119 x120 x121) (cnc x119 x120 x122)) (forall ((x123 Int) (x124 A)) (= (MS1 x123 x124 x121) (MS1 x123 x124 x122))))) (forall ((x125 PZA) (x126 PZA)) (=> (and (seq x125) (seq x126)) (exists ((x127 PZA)) (cnc x125 x126 x127))))) :named hyp22))
(assert (! (forall ((s11 PZA) (s21 PZA)) (=> (and (seq s11) (seq s21)) (exists ((x128 PZA) (x129 Int)) (and (cnc s11 s21 x128) (forall ((x130 Int) (x131 Int)) (=> (and (length s11 x131) (length s21 x130)) (= x129 (+ x131 x130)))) (length x128 x129))))) :named hyp23))
(assert (! (forall ((s12 PZA) (s22 PZA)) (=> (and (seq s12) (seq s22)) (forall ((x132 Int)) (= (exists ((x133 A) (x134 PZA)) (and (cnc s12 s22 x134) (MS1 x132 x133 x134))) (and (<= 1 x132) (forall ((x135 Int) (x136 Int)) (=> (and (length s12 x136) (length s22 x135)) (<= x132 (+ x136 x135))))))))) :named hyp24))
(assert (! (forall ((s13 PZA) (s23 PZA)) (=> (and (seq s13) (seq s23)) (forall ((x137 A)) (= (exists ((x138 Int) (x139 PZA)) (and (cnc s13 s23 x139) (MS1 x138 x137 x139))) (or (exists ((x140 Int)) (MS1 x140 x137 s13)) (exists ((x141 Int)) (MS1 x141 x137 s23))))))) :named hyp25))
(assert (! (forall ((s14 PZA) (s24 PZA) (i3 Int)) (=> (and (seq s14) (seq s24) (<= 1 i3) (forall ((x142 Int)) (=> (length s14 x142) (<= i3 x142)))) (exists ((x143 PZA)) (and (cnc s14 s24 x143) (exists ((x144 A)) (and (MS1 i3 x144 s14) (MS1 i3 x144 x143))))))) :named hyp26))
(assert (! (forall ((s15 PZA) (s25 PZA) (i4 Int)) (=> (and (seq s15) (seq s25) (forall ((x145 Int)) (=> (length s15 x145) (<= (+ x145 1) i4))) (forall ((x146 Int) (x147 Int)) (=> (and (length s15 x147) (length s25 x146)) (<= i4 (+ x147 x146))))) (exists ((x148 PZA)) (and (cnc s15 s25 x148) (exists ((x149 A)) (and (exists ((x150 Int)) (and (forall ((x151 Int)) (=> (length s15 x151) (= x150 (- i4 x151)))) (MS1 x150 x149 s25))) (MS1 i4 x149 x148))))))) :named hyp27))
(assert (! (forall ((x152 A) (x153 A)) (not (and (MS x152 x153 r) (= x152 x153)))) :named hyp28))
(assert (! (and (forall ((x154 A) (x155 A) (x156 Nat$)) (=> (dist x154 x155 (to_int$ x156)) (and (MS0 x154 a) (MS0 x155 a) (<= 0 (to_int$ x156))))) (forall ((x157 A) (x158 A) (x159 Int) (x160 Int)) (=> (and (dist x157 x158 x159) (dist x157 x158 x160)) (= x159 x160))) (forall ((x161 A) (x162 A)) (=> (and (MS0 x161 a) (MS0 x162 a)) (exists ((x163 Int)) (dist x161 x162 x163))))) :named hyp29))
(assert (! (forall ((x164 A) (y0 A)) (=> (and (MS0 x164 a) (MS0 y0 a)) (exists ((x165 Int)) (and (exists ((x166 PZA)) (and (exists ((x167 A) (x168 A)) (and (= x167 x164) (= x168 y0) (path x167 x168 x166))) (length x166 x165))) (forall ((x169 Int)) (=> (exists ((x170 PZA)) (and (exists ((x171 A) (x172 A)) (and (= x171 x164) (= x172 y0) (path x171 x172 x170))) (length x170 x169))) (<= x165 x169))) (dist x164 y0 x165))))) :named hyp30))
(assert (! (forall ((x173 PZA) (x174 PZA)) (= (reverse x173 x174) (exists ((s6 PZA)) (and (seq s6) (forall ((x175 Int) (x176 A)) (= (MS1 x175 x176 x173) (MS1 x175 x176 s6))) (forall ((x177 Int) (x178 A)) (= (MS1 x177 x178 x174) (exists ((i5 Int)) (and (<= 1 i5) (forall ((x179 Int)) (=> (length s6 x179) (<= i5 x179))) (= x177 i5) (exists ((x180 Int)) (and (forall ((x181 Int)) (=> (length s6 x181) (= x180 (+ (- x181 i5) 1)))) (MS1 x180 x178 s6))))))))))) :named hyp31))
(assert (! (and (forall ((x182 PZA) (x183 PZA)) (=> (reverse x182 x183) (and (seq x182) (seq x183)))) (forall ((x184 PZA) (x185 PZA) (x186 PZA)) (=> (and (reverse x184 x185) (reverse x184 x186)) (forall ((x187 Int) (x188 A)) (= (MS1 x187 x188 x185) (MS1 x187 x188 x186))))) (forall ((x189 PZA)) (=> (seq x189) (exists ((x190 PZA)) (reverse x189 x190))))) :named hyp32))
(assert (! (forall ((s7 PZA)) (=> (seq s7) (exists ((x191 PZA) (x192 Int)) (and (reverse s7 x191) (length s7 x192) (length x191 x192))))) :named hyp33))
(assert (! (forall ((s8 PZA)) (=> (seq s8) (forall ((x193 A)) (= (exists ((x194 Int) (x195 PZA)) (and (reverse s8 x195) (MS1 x194 x193 x195))) (exists ((x196 Int)) (MS1 x196 x193 s8)))))) :named hyp34))
(assert (! (forall ((s9 PZA)) (=> (seq s9) (exists ((x197 PZA)) (and (reverse s9 x197) (reverse x197 s9))))) :named hyp35))
(assert (! (forall ((x198 A) (x199 A)) (=> (MS x198 x199 r) (MS x199 x198 r))) :named hyp36))
(assert (! (forall ((x200 A) (y2 A) (p PZA)) (=> (path x200 y2 p) (exists ((x201 PZA)) (and (reverse p x201) (path y2 x200 x201))))) :named hyp37))
(assert (! (forall ((x202 A) (y3 A)) (=> (and (MS0 x202 a) (MS0 y3 a)) (forall ((x203 PZA)) (= (exists ((x204 A) (x205 A)) (and (= x204 y3) (= x205 x202) (path x204 x205 x203))) (exists ((x206 PZA)) (and (exists ((x207 A) (x208 A)) (and (= x207 x202) (= x208 y3) (path x207 x208 x206))) (reverse x206 x203))))))) :named hyp38))
(assert (! (forall ((x209 A) (y4 A)) (=> (and (MS0 x209 a) (MS0 y4 a)) (exists ((x210 Int)) (and (dist y4 x209 x210) (dist x209 y4 x210))))) :named hyp39))
(assert (! (forall ((x211 A) (x212 A) (x213 PZA)) (= (shpath x211 x212 x213) (exists ((x214 A) (y5 A) (p0 PZA)) (and (path x214 y5 p0) (exists ((x215 Int)) (and (length p0 x215) (dist x214 y5 x215))) (= x211 x214) (= x212 y5) (forall ((x216 Int) (x217 A)) (= (MS1 x216 x217 x213) (MS1 x216 x217 p0))))))) :named hyp40))
(assert (! (forall ((x218 A) (y6 A) (p1 PZA)) (=> (path x218 y6 p1) (and (exists ((x219 Int)) (dist x218 y6 x219)) (forall ((x220 A) (x221 A) (x222 Int) (x223 Int)) (=> (and (dist x220 x221 x222) (dist x220 x221 x223)) (= x222 x223))) (exists ((x224 Int)) (length p1 x224)) (forall ((x225 PZA) (x226 Int) (x227 Int)) (=> (and (length x225 x226) (length x225 x227)) (= x226 x227)))))) :named hyp41))
(assert (! (forall ((x228 A) (y7 A)) (=> (and (MS0 x228 a) (MS0 y7 a)) (exists ((x229 PZA)) (shpath x228 y7 x229)))) :named hyp42))
(assert (! (forall ((y10 A) (y20 A) (x230 A) (x1100 A) (p2 PZA) (q PZA)) (=> (and (MS0 y10 a) (MS0 y20 a) (MS0 x230 a) (MS0 x1100 a) (path x230 y10 q) (path y20 x1100 p2) (MS x1100 x230 r)) (exists ((x231 PZA)) (and (cnc p2 q x231) (path y20 y10 x231))))) :named hyp43))
(assert (! (forall ((x232 A) (y8 A) (p3 PZA) (i6 Int)) (=> (and (MS0 x232 a) (MS0 y8 a) (path x232 y8 p3) (<= 2 i6) (forall ((x233 Int)) (=> (length p3 x233) (<= i6 (- x233 1))))) (exists ((x234 A) (x235 PZA)) (and (MS1 i6 x234 p3) (forall ((x236 Int) (x237 A)) (= (MS1 x236 x237 x235) (and (MS1 x236 x237 p3) (<= 1 x236) (<= x236 i6)))) (path x232 x234 x235))))) :named hyp44))
(assert (! (forall ((x238 A) (y21 A) (p4 PZA)) (=> (and (MS0 x238 a) (MS0 y21 a) (path x238 y21 p4) (forall ((x239 Int)) (=> (length p4 x239) (<= 3 x239)))) (exists ((x240 A) (x241 PZA)) (and (exists ((x242 PZA)) (and (reverse p4 x242) (exists ((x243 Int)) (and (forall ((x244 Int)) (=> (length p4 x244) (= x243 (- x244 1)))) (MS1 x243 x240 x242))))) (forall ((x245 Int) (x246 A)) (= (MS1 x245 x246 x241) (and (exists ((x247 PZA)) (and (reverse p4 x247) (MS1 x245 x246 x247))) (<= 1 x245) (forall ((x248 Int)) (=> (length p4 x248) (<= x245 (- x248 1))))))) (path y21 x240 x241))))) :named hyp45))
(assert (! (forall ((x249 A) (y9 A) (p5 PZA)) (=> (shpath x249 y9 p5) (exists ((x250 PZA)) (and (reverse p5 x250) (shpath y9 x249 x250))))) :named hyp46))
(assert (! (forall ((x251 A) (x252 A) (x253 PZA)) (= (path x251 x252 x253) (exists ((x254 A) (y11 A) (p6 PZA)) (and (MS0 x254 a) (MS0 y11 a) (exists ((n4 Nat$)) (and (<= 0 (to_int$ n4)) (< 1 (to_int$ n4)) (forall ((x255 Int) (x256 A)) (=> (MS1 x255 x256 p6) (and (<= 1 x255) (<= x255 (to_int$ n4)) (MS0 x256 a)))) (forall ((x257 Int) (x258 A) (x259 A)) (=> (and (MS1 x257 x258 p6) (MS1 x257 x259 p6)) (= x258 x259))) (forall ((x260 Int)) (=> (and (<= 1 x260) (<= x260 (to_int$ n4))) (exists ((x261 A)) (MS1 x260 x261 p6)))) (exists ((x262 Int)) (and (= x262 1) (MS1 x262 x254 p6))) (MS1 (to_int$ n4) y11 p6) (forall ((i7 Int)) (=> (and (<= 1 i7) (<= i7 (- (to_int$ n4) 1))) (exists ((x263 A) (x264 A)) (and (MS1 i7 x263 p6) (exists ((x265 Int)) (and (= x265 (+ i7 1)) (MS1 x265 x264 p6))) (MS x263 x264 r))))))) (= x251 x254) (= x252 y11) (forall ((x266 Int) (x267 A)) (= (MS1 x266 x267 x253) (MS1 x266 x267 p6))))))) :named hyp47))
(assert (! (forall ((x268 A)) (= (MS0 x268 candidate) (exists ((z0 A)) (and (MS0 z0 a) (forall ((x269 A) (y12 A)) (=> (and (MS0 x269 a) (not (= x269 z0)) (MS0 y12 a) (not (= y12 z0)) (not (= x269 y12))) (exists ((p7 PZA)) (and (exists ((x270 A) (x271 A)) (and (= x270 x269) (= x271 y12) (path x270 x271 p7))) (not (exists ((x272 Int)) (MS1 x272 z0 p7))))))) (= x268 z0))))) :named hyp48))
(assert (! (forall ((u A)) (=> (MS0 u candidate) (forall ((x273 A) (x274 A)) (=> (and (MS0 x273 a) (not (= x273 u)) (MS0 x274 a) (not (= x274 u)) (not (= x273 x274))) (exists ((x275 A) (y13 A) (p8 PZA)) (and (MS0 x275 a) (not (= x275 u)) (MS0 y13 a) (not (= y13 u)) (not (= x275 y13)) (exists ((n5 Nat$)) (and (<= 0 (to_int$ n5)) (< 1 (to_int$ n5)) (forall ((x276 Int) (x277 A)) (=> (MS1 x276 x277 p8) (and (<= 1 x276) (<= x276 (to_int$ n5)) (MS0 x277 a) (not (= x277 u))))) (forall ((x278 Int) (x279 A) (x280 A)) (=> (and (MS1 x278 x279 p8) (MS1 x278 x280 p8)) (= x279 x280))) (forall ((x281 Int)) (=> (and (<= 1 x281) (<= x281 (to_int$ n5))) (exists ((x282 A)) (MS1 x281 x282 p8)))) (exists ((x283 Int)) (and (= x283 1) (MS1 x283 x275 p8))) (MS1 (to_int$ n5) y13 p8) (forall ((i8 Int)) (=> (and (<= 1 i8) (<= i8 (- (to_int$ n5) 1))) (exists ((x284 A) (x285 A)) (and (MS1 i8 x284 p8) (exists ((x286 Int)) (and (= x286 (+ i8 1)) (MS1 x286 x285 p8))) (MS x284 x285 r))))))) (= x273 x275) (= x274 y13))))))) :named hyp49))
(assert (! (forall ((s16 PZA) (s26 PZA)) (=> (and (seq s16) (seq s26)) (and (exists ((x287 Int)) (length s16 x287)) (forall ((x288 PZA) (x289 Int) (x290 Int)) (=> (and (length x288 x289) (length x288 x290)) (= x289 x290))) (forall ((i9 Int)) (=> (and (<= 1 i9) (forall ((x291 Int)) (=> (length s16 x291) (<= i9 x291)))) (and (exists ((x292 A)) (MS1 i9 x292 s16)) (forall ((x293 Int) (x294 A) (x295 A)) (=> (and (MS1 x293 x294 s16) (MS1 x293 x295 s16)) (= x294 x295)))))) (exists ((x296 Int)) (length s26 x296)) (forall ((i10 Int)) (=> (and (forall ((x297 Int)) (=> (length s16 x297) (<= (+ x297 1) i10))) (forall ((x298 Int) (x299 Int)) (=> (and (length s16 x299) (length s26 x298)) (<= i10 (+ x299 x298))))) (and (exists ((x300 A) (x301 Int)) (and (forall ((x302 Int)) (=> (length s16 x302) (= x301 (- i10 x302)))) (MS1 x301 x300 s26))) (forall ((x303 Int) (x304 A) (x305 A)) (=> (and (MS1 x303 x304 s26) (MS1 x303 x305 s26)) (= x304 x305))))))))) :named hyp50))
(assert (! (forall ((s17 PZA)) (=> (seq s17) (and (exists ((x306 Int)) (length s17 x306)) (forall ((x307 PZA) (x308 Int) (x309 Int)) (=> (and (length x307 x308) (length x307 x309)) (= x308 x309))) (forall ((i11 Int)) (=> (and (<= 1 i11) (forall ((x310 Int)) (=> (length s17 x310) (<= i11 x310)))) (and (exists ((x311 A) (x312 Int)) (and (forall ((x313 Int)) (=> (length s17 x313) (= x312 (+ (- x313 i11) 1)))) (MS1 x312 x311 s17))) (forall ((x314 Int) (x315 A) (x316 A)) (=> (and (MS1 x314 x315 s17) (MS1 x314 x316 s17)) (= x315 x316))))))))) :named hyp51))
(assert (! (forall ((x317 A) (y14 A) (p9 PZA) (i12 Int)) (=> (and (MS0 x317 a) (MS0 y14 a) (seq p9) (shpath x317 y14 p9) (exists ((x318 A)) (MS1 i12 x318 p9)) (not (= i12 1)) (not (length p9 i12))) (exists ((x319 A) (x320 PZA)) (and (MS1 i12 x319 p9) (forall ((x321 Int) (x322 A)) (= (MS1 x321 x322 x320) (and (MS1 x321 x322 p9) (<= 1 x321) (<= x321 i12)))) (shpath x317 x319 x320))))) :named hyp52))
(assert (! (forall ((x323 A) (y15 A) (p10 PZA) (i13 Int)) (=> (and (MS0 x323 a) (MS0 y15 a) (seq p10) (shpath x323 y15 p10) (exists ((x324 A)) (MS1 i13 x324 p10)) (not (= i13 1)) (not (length p10 i13))) (and (exists ((x325 A)) (and (MS1 i13 x325 p10) (dist x323 x325 i13))) (exists ((x326 A) (x327 Int)) (and (exists ((x328 Int)) (and (= x328 (+ i13 1)) (MS1 x328 x326 p10))) (= x327 (+ i13 1)) (dist x323 x326 x327))) (exists ((x329 A) (x330 A)) (and (MS1 i13 x329 p10) (exists ((x331 Int)) (and (= x331 (+ i13 1)) (MS1 x331 x330 p10))) (MS x329 x330 r)))))) :named hyp53))
(assert (! (forall ((x332 A) (y16 A) (p11 PZA) (z1 A)) (=> (and (MS0 x332 a) (MS0 y16 a) (seq p11) (shpath x332 y16 p11) (exists ((x333 Int)) (MS1 x333 z1 p11)) (not (= z1 x332)) (not (= z1 y16))) (exists ((t0 A)) (and (MS0 t0 a) (forall ((x334 Int) (x335 Int)) (=> (and (dist x332 z1 x335) (dist x332 t0 x334)) (< x335 x334))) (MS z1 t0 r))))) :named hyp54))
(assert (! (forall ((x336 A) (y17 A) (z2 A)) (=> (and (MS0 x336 a) (MS0 y17 a) (MS0 z2 a) (not (= z2 x336)) (not (= z2 y17)) (forall ((t1 A)) (=> (and (MS0 t1 a) (MS z2 t1 r)) (forall ((x337 Int) (x338 Int)) (=> (and (dist x336 t1 x338) (dist x336 z2 x337)) (<= x338 x337)))))) (exists ((q0 PZA)) (and (path x336 y17 q0) (not (exists ((x339 Int)) (MS1 x339 z2 q0))))))) :named hyp55))
(assert (! (forall ((x340 A) (x341 A)) (=> (and (MS0 x340 a) (MS0 x341 a)) (MS x340 x341 c))) :named hyp56))
(assert (! (not (forall ((x342 A)) (MS0 x342 a))) :named hyp57))
(assert (! (forall ((s18 PZA) (s27 PZA) (b PA)) (=> (and (seq s18) (seq s27) (forall ((x343 A)) (=> (exists ((x344 Int)) (MS1 x344 x343 s18)) (MS0 x343 b))) (forall ((x345 A)) (=> (exists ((x346 Int)) (MS1 x346 x345 s27)) (MS0 x345 b)))) (and (forall ((x347 Int) (x348 A)) (=> (exists ((x349 PZA)) (and (cnc s18 s27 x349) (MS1 x347 x348 x349))) (and (<= 1 x347) (forall ((x350 Int) (x351 Int)) (=> (and (length s18 x351) (length s27 x350)) (<= x347 (+ x351 x350)))) (MS0 x348 b)))) (forall ((x352 Int) (x353 A) (x354 A)) (=> (and (exists ((x355 PZA)) (and (cnc s18 s27 x355) (MS1 x352 x353 x355))) (exists ((x356 PZA)) (and (cnc s18 s27 x356) (MS1 x352 x354 x356)))) (= x353 x354))) (forall ((x357 Int)) (=> (and (<= 1 x357) (forall ((x358 Int) (x359 Int)) (=> (and (length s18 x359) (length s27 x358)) (<= x357 (+ x359 x358))))) (exists ((x360 A) (x361 PZA)) (and (cnc s18 s27 x361) (MS1 x357 x360 x361)))))))) :named hyp58))
(assert (! (forall ((x362 A) (x363 A) (x364 PZA)) (= (path x362 x363 x364) (exists ((x365 A) (y18 A) (p12 PZA)) (and (seq p12) (forall ((x366 A)) (=> (exists ((x367 Int)) (MS1 x367 x366 p12)) (MS0 x366 a))) (forall ((x368 Int)) (=> (length p12 x368) (< 1 x368))) (exists ((x369 Int)) (and (= x369 1) (MS1 x369 x365 p12))) (exists ((x370 Int)) (and (length p12 x370) (MS1 x370 y18 p12))) (forall ((i14 Int)) (=> (and (<= 1 i14) (forall ((x371 Int)) (=> (length p12 x371) (<= i14 (- x371 1))))) (exists ((x372 A) (x373 A)) (and (MS1 i14 x372 p12) (exists ((x374 Int)) (and (= x374 (+ i14 1)) (MS1 x374 x373 p12))) (MS x372 x373 r))))) (= x362 x365) (= x363 y18) (forall ((x375 Int) (x376 A)) (= (MS1 x375 x376 x364) (MS1 x375 x376 p12))))))) :named hyp59))
(assert (! (forall ((x377 A) (y19 A) (p13 PZA)) (=> (and (seq p13) (forall ((x378 A)) (=> (exists ((x379 Int)) (MS1 x379 x378 p13)) (MS0 x378 a)))) (and (exists ((x380 Int)) (length p13 x380)) (forall ((x381 PZA) (x382 Int) (x383 Int)) (=> (and (length x381 x382) (length x381 x383)) (= x382 x383))) (=> (forall ((x384 Int)) (=> (length p13 x384) (< 1 x384))) (and (exists ((x385 A) (x386 Int)) (and (= x386 1) (MS1 x386 x385 p13))) (forall ((x387 Int) (x388 A) (x389 A)) (=> (and (MS1 x387 x388 p13) (MS1 x387 x389 p13)) (= x388 x389))) (=> (exists ((x390 Int)) (and (= x390 1) (MS1 x390 x377 p13))) (and (exists ((x391 A) (x392 Int)) (and (length p13 x392) (MS1 x392 x391 p13))) (=> (exists ((x393 Int)) (and (length p13 x393) (MS1 x393 y19 p13))) (forall ((i15 Int)) (=> (and (<= 1 i15) (forall ((x394 Int)) (=> (length p13 x394) (<= i15 (- x394 1))))) (and (exists ((x395 A)) (MS1 i15 x395 p13)) (exists ((x396 A) (x397 Int)) (and (= x397 (+ i15 1)) (MS1 x397 x396 p13)))))))))))))) :named hyp60))
(assert (! (MS0 x a) :named hyp61))
(assert (! (MS0 y1 a) :named hyp62))
(assert (! (MS0 z a) :named hyp63))
(assert (! (not (= z x)) :named hyp64))
(assert (! (not (= z y1)) :named hyp65))
(assert (! (MS0 t a) :named hyp66))
(assert (! (MS z t r) :named hyp67))
(assert (! (not (exists ((x398 Int)) (dist x z x398))) :named goal))
(check-sat)
(exit)
